language ESSENCE' 1.0
$ minion Nodes: 1
$ minion TotalTime: 0.000548
$ Savile Row TotalTime: 0.261
letting seq_AsReln_RelationIntMatrix2 be [[true, false;int(-1,1)], 
[true, false;int(-1,1)], 
[false, true;int(-1,1)];int(1..3)]
